NAME          ClpDefau  FREE
ROWS
 N  OBJROW
 L  ZMUNI1_PCT
 L  ZMUNI2_PCT
 L  ZMUNI3_PCT
 L  ZMUNI4_PCT
 L  ZMUNI5_PCT
 L  ZMUNI6_PCT
 L  ZMUNI7_PCT
 L  ZMUNI8_PCT
 L  ZMUNI9_PCT
COLUMNS
    QMUNI1 OBJROW 1.          
    QMUNI1 ZMUNI1_PCT 29312.706   
    QMUNI1 ZMUNI2_PCT 2193.4509   
    QMUNI1 ZMUNI3_PCT 4698.5626   
    QMUNI1 ZMUNI4_PCT 3512.3825   
    QMUNI1 ZMUNI5_PCT 919.5327    
    QMUNI1 ZMUNI6_PCT 1069.2597   
    QMUNI1 ZMUNI7_PCT 2410.5072   
    QMUNI1 ZMUNI8_PCT 1977.1576   
    QMUNI1 ZMUNI9_PCT 1148.9868   
    QMUNI2 OBJROW 1.          
    QMUNI2 ZMUNI1_PCT 1847.2672   
    QMUNI2 ZMUNI2_PCT 34287.0712  
    QMUNI2 ZMUNI3_PCT 2638.2446   
    QMUNI2 ZMUNI4_PCT 2776.4321   
    QMUNI2 ZMUNI5_PCT 322.3419    
    QMUNI2 ZMUNI6_PCT 353.8132    
    QMUNI2 ZMUNI7_PCT 1065.4449   
    QMUNI2 ZMUNI8_PCT 1241.3025   
    QMUNI2 ZMUNI9_PCT 1071.9299   
    QMUNI3 OBJROW 1.          
    QMUNI3 ZMUNI1_PCT 4251.4801   
    QMUNI3 ZMUNI2_PCT 2670.0973   
    QMUNI3 ZMUNI3_PCT 30429.4586  
    QMUNI3 ZMUNI4_PCT 5133.0567   
    QMUNI3 ZMUNI5_PCT 209.6176    
    QMUNI3 ZMUNI6_PCT 336.0748    
    QMUNI3 ZMUNI7_PCT 1634.9792   
    QMUNI3 ZMUNI8_PCT 1514.6256   
    QMUNI3 ZMUNI9_PCT 704.3838    
    QMUNI4 OBJROW 1.          
    QMUNI4 ZMUNI1_PCT 4186.0581   
    QMUNI4 ZMUNI2_PCT 3749.4659   
    QMUNI4 ZMUNI3_PCT 6322.8607   
    QMUNI4 ZMUNI4_PCT 107371.42566
    QMUNI4 ZMUNI5_PCT 1179.6951   
    QMUNI4 ZMUNI6_PCT 1303.2913   
    QMUNI4 ZMUNI7_PCT 2699.4705   
    QMUNI4 ZMUNI8_PCT 2588.8443   
    QMUNI4 ZMUNI9_PCT 2027.1301   
    QMUNI5 OBJROW 1.          
    QMUNI5 ZMUNI1_PCT 818.8248    
    QMUNI5 ZMUNI2_PCT 606.3461    
    QMUNI5 ZMUNI3_PCT 734.7107    
    QMUNI5 ZMUNI4_PCT 624.3706    
    QMUNI5 ZMUNI5_PCT 36156.2728  
    QMUNI5 ZMUNI6_PCT 3679.8477   
    QMUNI5 ZMUNI7_PCT 1220.8938   
    QMUNI5 ZMUNI8_PCT 984.0012    
    QMUNI5 ZMUNI9_PCT 868.2251    
    QMUNI6 OBJROW 1.          
    QMUNI6 ZMUNI1_PCT 1312.6373   
    QMUNI6 ZMUNI2_PCT 1066.9708   
    QMUNI6 ZMUNI3_PCT 1208.3053   
    QMUNI6 ZMUNI4_PCT 1020.7177   
    QMUNI6 ZMUNI5_PCT 4203.2241   
    QMUNI6 ZMUNI6_PCT 33876.6098  
    QMUNI6 ZMUNI7_PCT 2268.7912   
    QMUNI6 ZMUNI8_PCT 2039.7187   
    QMUNI6 ZMUNI9_PCT 2111.8164   
    QMUNI7 OBJROW 1.          
    QMUNI7 ZMUNI1_PCT 2118.4921   
    QMUNI7 ZMUNI2_PCT 1473.4268   
    QMUNI7 ZMUNI3_PCT 1928.7109   
    QMUNI7 ZMUNI4_PCT 1539.135    
    QMUNI7 ZMUNI5_PCT 1235.5804   
    QMUNI7 ZMUNI6_PCT 1422.8821   
    QMUNI7 ZMUNI7_PCT 31853.2943  
    QMUNI7 ZMUNI8_PCT 3676.2238   
    QMUNI7 ZMUNI9_PCT 2198.0285   
    QMUNI8 OBJROW 1.          
    QMUNI8 ZMUNI1_PCT 1482.0099   
    QMUNI8 ZMUNI2_PCT 1237.4878   
    QMUNI8 ZMUNI3_PCT 1483.9172   
    QMUNI8 ZMUNI4_PCT 1196.003    
    QMUNI8 ZMUNI5_PCT 622.7493    
    QMUNI8 ZMUNI6_PCT 680.1605    
    QMUNI8 ZMUNI7_PCT 2822.4945   
    QMUNI8 ZMUNI8_PCT 28984.8328  
    QMUNI8 ZMUNI9_PCT 1636.6958   
    QMUNI9 OBJROW 1.          
    QMUNI9 ZMUNI1_PCT 1349.6399   
    QMUNI9 ZMUNI2_PCT 1659.3933   
    QMUNI9 ZMUNI3_PCT 1433.9447   
    QMUNI9 ZMUNI4_PCT 1231.1936   
    QMUNI9 ZMUNI5_PCT 1275.2533   
    QMUNI9 ZMUNI6_PCT 1296.8063   
    QMUNI9 ZMUNI7_PCT 2424.0493   
    QMUNI9 ZMUNI8_PCT 2971.8399   
    QMUNI9 ZMUNI9_PCT 29227.6382  
RHS
    RHS ZMUNI1_PCT 0.0133661556
    RHS ZMUNI2_PCT -0.002212128
    RHS ZMUNI3_PCT 0.0004859926
    RHS ZMUNI4_PCT 0.0080541992
    RHS ZMUNI5_PCT -0.005103084
    RHS ZMUNI6_PCT -0.010853447
    RHS ZMUNI7_PCT -0.008189601
    RHS ZMUNI8_PCT -0.007246665
    RHS ZMUNI9_PCT -0.01697501 
BOUNDS
 LO BOUND QMUNI1 -0.000856451
 UP BOUND QMUNI1      1.1e+10
 LO BOUND QMUNI2 -0.000590877
 UP BOUND QMUNI2      1.1e+10
 LO BOUND QMUNI3 -0.000648722
 UP BOUND QMUNI3      1.1e+10
 LO BOUND QMUNI4 -0.00024731 
 UP BOUND QMUNI4      1.1e+10
 LO BOUND QMUNI5 -0.000437973
 UP BOUND QMUNI5      1.1e+10
 LO BOUND QMUNI6 -0.000606712
 UP BOUND QMUNI6      1.1e+10
 LO BOUND QMUNI7 -0.000267518
 UP BOUND QMUNI7      1.1e+10
 LO BOUND QMUNI8 -0.000374316
 UP BOUND QMUNI8      1.1e+10
 LO BOUND QMUNI9 -0.000396704
 UP BOUND QMUNI9      1.1e+10
ENDATA
